p tw 53 56
1 2
2 13
3 4
4 5
4 7
5 6
6 21
7 8
8 9
9 10
10 11
10 17
11 12
12 14
13 24
14 15
15 16
16 19
17 18
18 19
19 20
20 21
21 22
22 23
23 25
24 35
25 35
26 27
27 28
28 29
29 30
30 31
31 32
32 33
33 34
33 48
34 36
35 46
36 37
37 38
38 39
39 40
40 41
41 42
42 43
43 44
44 45
45 47
46 50
47 30
48 49
50 51
51 52
51 26
52 53
53 3
